30
5
3005003
0
0
52 82 26 31 24 
1
0
45 40 81 3 21 
2
0
26 4 90 87 81 
3
0
3 1 94 2 50 
4
0
15 27 51 9 34 
5
0
2 83 42 13 1 
6
0
22 79 5 95 20 
7
0
51 78 62 99 69 
8
0
74 32 42 21 75 
9
0
95 80 20 7 26 
10
0
89 59 32 6 60 
11
0
75 56 31 10 31 
12
0
36 67 64 4 31 
13
0
30 54 16 29 42 
14
0
37 27 51 99 34 
15
0
67 30 10 42 80 
16
0
91 23 58 62 30 
17
0
8 57 52 63 12 
18
0
18 27 64 38 56 
19
0
13 58 97 26 39 
20
0
60 11 47 95 15 
21
0
7 39 33 66 39 
22
0
58 88 49 13 81 
23
0
46 88 25 80 88 
24
0
5 34 24 99 76 
25
0
56 64 86 56 14 
26
0
77 20 87 88 84 
27
0
44 83 23 94 23 
28
0
32 8 92 60 61 
29
0
84 98 17 32 68 
